c generated by sgen
p cnf 105 220
-2 -3 -4 0
-1 -3 -4 0
-1 -2 -4 0
-1 -2 -3 0
-6 -7 -8 0
-5 -7 -8 0
-5 -6 -8 0
-5 -6 -7 0
-10 -11 -12 0
-9 -11 -12 0
-9 -10 -12 0
-9 -10 -11 0
-14 -15 -16 0
-13 -15 -16 0
-13 -14 -16 0
-13 -14 -15 0
-18 -19 -20 0
-17 -19 -20 0
-17 -18 -20 0
-17 -18 -19 0
-22 -23 -24 0
-21 -23 -24 0
-21 -22 -24 0
-21 -22 -23 0
-26 -27 -28 0
-25 -27 -28 0
-25 -26 -28 0
-25 -26 -27 0
-30 -31 -32 0
-29 -31 -32 0
-29 -30 -32 0
-29 -30 -31 0
-34 -35 -36 0
-33 -35 -36 0
-33 -34 -36 0
-33 -34 -35 0
-38 -39 -40 0
-37 -39 -40 0
-37 -38 -40 0
-37 -38 -39 0
-42 -43 -44 0
-41 -43 -44 0
-41 -42 -44 0
-41 -42 -43 0
-46 -47 -48 0
-45 -47 -48 0
-45 -46 -48 0
-45 -46 -47 0
-50 -51 -52 0
-49 -51 -52 0
-49 -50 -52 0
-49 -50 -51 0
-54 -55 -56 0
-53 -55 -56 0
-53 -54 -56 0
-53 -54 -55 0
-58 -59 -60 0
-57 -59 -60 0
-57 -58 -60 0
-57 -58 -59 0
-62 -63 -64 0
-61 -63 -64 0
-61 -62 -64 0
-61 -62 -63 0
-66 -67 -68 0
-65 -67 -68 0
-65 -66 -68 0
-65 -66 -67 0
-70 -71 -72 0
-69 -71 -72 0
-69 -70 -72 0
-69 -70 -71 0
-74 -75 -76 0
-73 -75 -76 0
-73 -74 -76 0
-73 -74 -75 0
-78 -79 -80 0
-77 -79 -80 0
-77 -78 -80 0
-77 -78 -79 0
-82 -83 -84 0
-81 -83 -84 0
-81 -82 -84 0
-81 -82 -83 0
-86 -87 -88 0
-85 -87 -88 0
-85 -86 -88 0
-85 -86 -87 0
-90 -91 -92 0
-89 -91 -92 0
-89 -90 -92 0
-89 -90 -91 0
-94 -95 -96 0
-93 -95 -96 0
-93 -94 -96 0
-93 -94 -95 0
-98 -99 -100 0
-97 -99 -100 0
-97 -98 -100 0
-97 -98 -99 0
-101 -102 -103 0
-101 -102 -104 0
-101 -102 -105 0
-101 -103 -104 0
-101 -103 -105 0
-101 -104 -105 0
-102 -103 -104 0
-102 -103 -105 0
-102 -104 -105 0
-103 -104 -105 0
28 8 24 0
64 8 24 0
64 28 24 0
64 28 8 0
40 70 10 0
99 70 10 0
99 40 10 0
99 40 70 0
50 79 98 0
5 79 98 0
5 50 98 0
5 50 79 0
15 54 93 0
72 54 93 0
72 15 93 0
72 15 54 0
7 34 74 0
88 34 74 0
88 7 74 0
88 7 34 0
96 84 22 0
102 84 22 0
102 96 22 0
102 96 84 0
59 3 62 0
14 3 62 0
14 59 62 0
14 59 3 0
1 101 27 0
18 101 27 0
18 1 27 0
18 1 101 0
87 61 95 0
105 61 95 0
105 87 95 0
105 87 61 0
29 49 83 0
2 49 83 0
2 29 83 0
2 29 49 0
19 51 67 0
69 51 67 0
69 19 67 0
69 19 51 0
31 100 94 0
44 100 94 0
44 31 94 0
44 31 100 0
68 33 81 0
97 33 81 0
97 68 81 0
97 68 33 0
65 11 6 0
42 11 6 0
42 65 6 0
42 65 11 0
41 91 16 0
17 91 16 0
17 41 16 0
17 41 91 0
75 78 13 0
82 78 13 0
82 75 13 0
82 75 78 0
52 39 89 0
48 39 89 0
48 52 89 0
48 52 39 0
77 23 36 0
53 23 36 0
53 77 36 0
53 77 23 0
38 104 80 0
86 104 80 0
86 38 80 0
86 38 104 0
26 90 56 0
57 90 56 0
57 26 56 0
57 26 90 0
12 92 4 0
85 92 4 0
85 12 4 0
85 12 92 0
71 45 25 0
43 45 25 0
43 71 25 0
43 71 45 0
35 46 9 0
103 46 9 0
103 35 9 0
103 35 46 0
20 58 21 0
32 58 21 0
32 20 21 0
32 20 58 0
73 60 37 0
66 60 37 0
66 73 37 0
66 73 60 0
47 76 30 0
47 76 63 0
47 76 55 0
47 30 63 0
47 30 55 0
47 63 55 0
76 30 63 0
76 30 55 0
76 63 55 0
30 63 55 0
